Minimize
  - 9 y_0 - 8 y_1 - 5 y_2 - 5 y_3 - 5 y_4 - 10 y_5 - 10 y_6 - 5 y_8 - 2 y_9
   - 9 y_10 - 8 y_11 - 2 y_12 - 9 y_13 - 12 y_14 - 3 y_15 - 8 y_16 - 9 y_17
   - 7 y_18 - 2 y_19 - 9 y_20 - 4 y_21 - 7 y_22 - y_23 - 5 y_24 - 5 y_25
   - 5 y_26 - 7 y_27 - y_28 - 7 y_29 - 9 y_30 - 7 y_31 - 9 y_32 - 9 y_33
   - 5 y_34 - 9 y_35 - 6 y_36 - 7 y_37 - 6 y_38 - 9 y_39 - 6 y_40 - 2 y_41
   - 6 y_42 - 8 y_43 - 9 y_44 - 10 y_45 - 5 y_46 - 4 y_47 - 6 y_48 - 6 y_49
   + 317 Constant
Subject To
 c_0: y_26 = 1
 c_1_0: y_0 + y_10 + y_33 >= 1
 c_1_1: y_1 >= 1
 c_1_2: y_2 + y_46 >= 1
 c_1_3: y_3 + y_4 + y_26 >= 1
 c_1_4: y_3 + y_4 + y_26 + y_38 >= 1
 c_1_5: y_5 + y_32 >= 1
 c_1_6: y_6 >= 1
 c_1_7: y_7 + y_28 >= 1
 c_1_8: y_8 + y_40 >= 1
 c_1_9: y_9 + y_12 + y_41 >= 1
 c_1_10: y_0 + y_10 + y_33 >= 1
 c_1_11: y_11 >= 1
 c_1_12: y_9 + y_12 >= 1
 c_1_13: y_13 >= 1
 c_1_14: y_14 >= 1
 c_1_15: y_15 >= 1
 c_1_16: y_16 + y_43 >= 1
 c_1_17: y_17 + y_30 >= 1
 c_1_18: y_18 + y_31 >= 1
 c_1_19: y_19 + y_23 >= 1
 c_1_20: y_20 + y_30 + y_35 + y_39 >= 1
 c_1_21: y_21 + y_24 >= 1
 c_1_22: y_22 >= 1
 c_1_23: y_19 + y_23 + y_28 >= 1
 c_1_24: y_21 + y_24 >= 1
 c_1_25: y_25 + y_34 + y_46 >= 1
 c_1_26: y_3 + y_4 + y_26 + y_38 >= 1
 c_1_27: y_27 + y_42 + y_48 >= 1
 c_1_28: y_7 + y_23 + y_28 >= 1
 c_1_29: y_29 + y_37 >= 1
 c_1_30: y_17 + y_20 + y_30 + y_35 >= 1
 c_1_31: y_18 + y_31 >= 1
 c_1_32: y_5 + y_32 >= 1
 c_1_33: y_0 + y_10 + y_33 >= 1
 c_1_34: y_25 + y_34 >= 1
 c_1_35: y_20 + y_30 + y_35 + y_39 >= 1
 c_1_36: y_36 + y_49 >= 1
 c_1_37: y_29 + y_37 >= 1
 c_1_38: y_4 + y_26 + y_38 >= 1
 c_1_39: y_20 + y_35 + y_39 >= 1
 c_1_40: y_8 + y_40 + y_48 >= 1
 c_1_41: y_9 + y_41 >= 1
 c_1_42: y_27 + y_42 + y_48 >= 1
 c_1_43: y_16 + y_43 >= 1
 c_1_44: y_44 >= 1
 c_1_45: y_45 >= 1
 c_1_46: y_2 + y_25 + y_46 + y_47 >= 1
 c_1_47: y_46 + y_47 >= 1
 c_1_48: y_27 + y_40 + y_42 + y_48 >= 1
 c_1_49: y_36 + y_49 >= 1
Bounds
 Constant = 1
Binaries
 y_0 y_1 y_2 y_3 y_4 y_5 y_6 y_7 y_8 y_9 y_10 y_11 y_12 y_13 y_14 y_15 y_16
 y_17 y_18 y_19 y_20 y_21 y_22 y_23 y_24 y_25 y_26 y_27 y_28 y_29 y_30 y_31
 y_32 y_33 y_34 y_35 y_36 y_37 y_38 y_39 y_40 y_41 y_42 y_43 y_44 y_45 y_46
 y_47 y_48 y_49
End
